c --- [ banner ] -------------------------------------------------------------
c 
c CaDiCaL Radically Simplified CDCL SAT Solver
c Copyright (c) 2016-2021 A. Biere, M. Fleury, N. Froleyks
c 
c Version 1.5.2 ca9bff05c11bde5eae4912f9932871d1527e61d8
c g++ (GCC) 9.3.0 -Wall -Wextra -O3 -DNDEBUG
c Thu Jul 28 23:42:48 EDT 2022 Linux gra-login3 3.10.0-1160.66.1.el7.x86_64 x86_64
c 
c --- [ limit ] --------------------------------------------------------------
c 
c setting conflict limit to 200000 conflicts (due to '200000')
c 
c --- [ parsing input ] ------------------------------------------------------
c 
c reading DIMACS file from '23.cubes700.adj'
c opening file to read '23.cubes700.adj'
c found 'p cnf 5320 914892' header
c parsed 914892 clauses in 8.24 seconds process time
c closing file '23.cubes700.adj'
c after reading 637829988 bytes 608.3 MB
c 
c --- [ options ] ------------------------------------------------------------
c 
c all options are set to their default value
c 
c --- [ solving ] ------------------------------------------------------------
c 
c time measured in process time since initialization
c 
c  seconds   reductions  redundant  irredundant
c          MB    restarts       trail      variables
c           level   conflicts       glue        remaining
c 
c *  8.24 629  0 0   0    0    0  0% 0 914847 2206 41%
c {  8.55 647  0 0   0    0    0  0% 0 914847 2206 41%
c i  9.99 692 273 0   1   99   77 20% 4 914847 2199 41%
c i 10.36 696 196 0  12  135  104 19% 5 914847 2197 41%
c i 11.57 709 158 0  24  182  145 20% 10 914847 2188 41%
c i 12.40 715 135 0  40  250  198 21% 17 914847 2181 41%
c i 12.77 715 132 0  48  285  227 21% 22 914847 2180 41%
c - 14.92 703 128 1  53  300  242 22% 23 319610 2180 41%
c i 15.15 704 125 1  59  338  272 22% 24 319610 2179 41%
c i 15.22 704 122 1  60  347  278 22% 24 319610 2126 40%
c i 15.22 704 122 1  61  348  278 22% 24 319610 2102 40%
c i 16.04 704 101 1  78  535  412 24% 25 319610 2101 39%
c i 16.06 705 101 1  80  539  415 24% 25 319610 2100 39%
c i 16.06 705 101 1  80  540  415 24% 25 319610 2099 39%
c i 16.12 705 99 1  83  552  422 24% 25 319610 2098 39%
c i 16.45 705 97 1 100  627  486 24% 26 319610 2097 39%
c i 16.49 705 90 1 100  702  546 25% 26 319610 2096 39%
c i 16.52 705 86 1 103  750  584 25% 26 319610 2095 39%
c i 16.53 705 84 1 103  770  598 25% 26 319610 2094 39%
c i 16.58 705 74 1 103  907  708 26% 24 319610 2093 39%
c 
c  seconds   reductions  redundant   irredundant
c          MB    restarts       trail       variables
c           level   conflicts       glue         remaining
c 
c i 16.58 705 74 1 103  911  711 26% 24 319610 2092 39%
c i 16.58 705 74 1 103  914  712 26% 24 319610 2091 39%
c i 16.59 705 72 1 103  949  738 26% 24 319610 2090 39%
c } 16.61 704 69 1 103 1002  776 26% 24 319610 2090 39%
c [ 16.61 704  0 1 103 1002  776  0% 0 319610 2090 39%
c O 16.61 705  0 1 103 1003  776  8% 0 319610 2090 39%
c i 16.61 705  0 1 103 1003  776  8% 0 319610 2088 39%
c i 16.61 705  0 1 103 1004  776  8% 0 319610 2045 38%
c i 16.71 705 30 1 103 1048  815 30% 23 319610 2044 38%
c i 16.77 705 28 1 103 1119  871 31% 23 319610 2043 38%
c i 16.80 704 27 1 103 1184  925 31% 22 319610 2042 38%
c i 16.81 705 27 1 103 1188  928 31% 21 319610 2041 38%
c - 17.36 765 26 2 103 1203  843 31% 21 125830 2041 38%
c i 17.49 765 25 2 103 1375  930 31% 20 125830 2040 38%
c i 17.49 765 24 2 103 1377  931 31% 20 125830 2039 38%
c i 17.51 765 24 2 103 1437  955 31% 20 125830 2038 38%
c i 17.57 765 23 2 103 1628 1054 30% 19 125830 2037 38%
c i 17.71 765 21 2 104 2194 1326 30% 18 125830 2036 38%
c - 17.88 691 21 3 104 2194  897 30% 18 125815 2036 38%
c i 18.13 691 21 3 104 2496 1020 56% 18 125815 2035 38%
c 
c  seconds   reductions  redundant   irredundant
c          MB    restarts       trail       variables
c           level   conflicts       glue         remaining
c 
c i 18.13 691 21 3 104 2514 1030 56% 18 125815 2034 38%
c i 18.15 691 21 3 104 2554 1039 56% 18 125815 2033 38%
c ] 18.30 691 22 3 104 3004 1310 56% 19 125815 2033 38%
c { 18.30 691 69 3 104 3004 1310 68% 24 125815 2033 38%
c F 18.34 691 69 3 104 3005 1311 68% 24 125815 2033 38%
c i 18.42 691 67 3 104 3036 1333 67% 23 125815 2032 38%
c i 18.47 691 66 3 104 3072 1358 67% 23 125815 2031 38%
c i 18.48 691 66 3 104 3087 1370 67% 23 125815 2030 38%
c i 18.49 691 64 3 104 3121 1393 66% 23 125815 2029 38%
c i 18.51 691 61 3 104 3206 1434 65% 22 125815 2028 38%
c i 18.51 691 60 3 104 3210 1437 65% 22 125815 2027 38%
c i 18.52 691 59 3 104 3242 1455 65% 22 125815 2026 38%
c - 18.75 690 51 4 104 3515 1227 63% 20 125785 2026 38%
c i 18.80 690 51 4 104 3550 1249 63% 20 125785 2025 38%
c i 18.85 690 46 4 105 3770 1382 62% 20 125785 2024 38%
c i 18.95 690 41 4 105 4111 1555 61% 18 125785 2023 38%
c i 19.19 690 41 4 139 4293 1685 60% 19 125785 2022 38%
c i 19.19 690 41 4 139 4295 1685 60% 19 125785 2021 38%
c i 19.20 690 41 4 139 4320 1692 60% 19 125785 2020 38%
c i 19.30 690 39 4 139 4599 1869 59% 19 125785 2019 38%
c 
c  seconds   reductions  redundant   irredundant
c          MB    restarts       trail       variables
c           level   conflicts       glue         remaining
c 
c d 19.73 690 36 4 148 5000 2128 58% 18 114797 2006 38%
c 2 19.77 690 36 4 148 5000 4053 58% 18 114797 1980 37%
c p 23.42 690 36 4 148 5000 10639 58% 18 114797 1797 34%
c d 23.61 690 36 4 148 5000 9446 58% 18 72911 1789 34%
c d 23.63 690 36 4 148 5000 9441 58% 18 72905 1787 34%
c - 23.90 631 36 5 167 5168 1897 58% 18 72905 1787 34%
c # 24.06 631 32 5 167 6007 2340 57% 17 72905 1787 34%
c - 24.23 633 29 6 174 6968 2080 57% 17 72905 1787 34%
c } 24.24 633 28 6 174 7007 2105 57% 16 72905 1787 34%
c [ 24.24 633 22 6 174 7007 2105 56% 19 72905 1787 34%
c - 24.71 633 22 7 175 9069 2245 54% 18 72905 1787 34%
c I 24.94 633 21 7 176 10012 2707 25% 18 72905 1787 34%
c - 25.74 633 39 8 178 11469 2868 47% 31 72905 1787 34%
c - 27.32 633 44 9 179 14170 3413 47% 35 72905 1787 34%
c 2 27.79 633 43 9 179 15000 5277 47% 35 72899 1787 34%
c p 28.48 633 43 9 179 15000 10136 47% 35 72899 1787 34%
c ] 28.53 633 43 9 179 15007 10143 47% 35 72899 1787 34%
c { 28.53 633 28 9 179 15007 10143 65% 16 72899 1787 34%
c B 28.59 633 28 9 179 15014 10148 65% 17 72899 1787 34%
c - 29.09 633 24 10 210 17172 3971 60% 15 72899 1787 34%
c 
c  seconds   reductions    redundant   irredundant
c          MB     restarts        trail      variables
c           level     conflicts       glue        remaining
c 
c s 29.18 634 24 10 215 17392 3706 59% 15 71800 1787 34%
c v 29.82 634 24 10 215 17392 3706 59% 15 71772 1787 34%
c t 29.86 634 24 10 215 17392 3671 59% 15 71759 1787 34%
c e 30.11 635 24 10 215 17392 3107 59% 15 69093 545 10%
c s 30.16 635 24 10 215 17392 3105 59% 15 68662 545 10%
c - 31.89 635 23 11 409 20472 4210 85% 15 68662 545 10%
c W 32.15 635 22 11 409 21017 4543 85% 15 68662 545 10%
c } 32.42 635 22 11 459 21675 4943 85% 15 68662 545 10%
c 1 32.42 635 22 11 459 21675 4943 85% 15 68662 545 10%
c 
c --- [ writing output ] -----------------------------------------------------
c 
c writing simplified CNF to DIMACS file 'simp/23.cubes700.adj.simp1'
c * 32.42 635 22 11 459 21675 4943 85% 15 68662 545 10%
c opening file to write 'simp/23.cubes700.adj.simp1'
c writing 'p cnf 5320 68662' header
c closing file 'simp/23.cubes700.adj.simp1'
c after writing 30701280 bytes 29.3 MB
c wrote 68662 clauses in 0.22 seconds process time
c 
c --- [ writing extension ] --------------------------------------------------
c 
c writing extension stack to 'simp/23.cubes700.adj.ext1'
c opening file to write 'simp/23.cubes700.adj.ext1'
c closing file 'simp/23.cubes700.adj.ext1'
c after writing 82752 bytes 0.1 MB
c wrote 3622 witnesses in 0.00 seconds process time
c 
c --- [ result ] -------------------------------------------------------------
c 
s SATISFIABLE
c 
c --- [ run-time profiling ] -------------------------------------------------
c 
c process time taken by individual solving procedures
c (percentage relative to process time for solving)
c 
c        18.10   74.87% search
c        12.43   51.43% unstable
c         8.24   34.08% parse
c         6.08   25.13% simplify
c         5.26   21.74% stable
c         4.34   17.95% probe
c         0.67    2.77% vivify
c         0.45    1.84% elim
c         0.31    1.29% lucky
c         0.10    0.41% walk
c         0.10    0.39% subsume
c         0.04    0.18% ternary
c   =================================
c        24.18   74.07% solve
c 
c last line shows process time for solving
c (percentage relative to total process time)
c 
c --- [ statistics ] ---------------------------------------------------------
c 
c chronological:              4015        18.52 %  of conflicts
c conflicts:                 21675       896.49    per second
c decisions:                 47654      1970.99    per second
c eliminated:                 1242        23.35 %  of all variables
c fixed:                       673        12.65 %  of all variables
c learned:                   21204        97.83 %  per conflict
c learned_lits:            3537735       100.00 %  learned literals
c minimized:                     0         0.00 %  learned literals
c shrunken:                2649738        74.90 %  learned literals
c minishrunken:             121007         3.42 %  learned literals
c propagations:            2585466         0.11 M  per second
c reduced:                    7657        35.33 %  per conflict
c rephased:                      6      3612.50    interval
c restarts:                    459        47.22    interval
c stabilizing:                   2        46.15 %  of conflicts
c substituted:                  23         0.43 %  of all variables
c subsumed:                   9812         0.50 %  of all clauses
c strengthened:               2054         0.11 %  of all clauses
c ternary:                    3277         0.87 %  of resolved
c vivified:                     51         0.00 %  of all clauses
c walked:                        1     21675.00    interval
c weakened:                   2949         3.07    average size
c 
c seconds are measured in process time for solving
c 
c --- [ resources ] ----------------------------------------------------------
c 
c total process time since initialization:        32.64    seconds
c total real time since initialization:           32.76    seconds
c maximum resident set size of process:          824.96    MB
c 
c --- [ shutting down ] ------------------------------------------------------
c 
c exit 10
WARNING! DIMACS header mismatch: wrong number of variables.
============================[ Problem Statistics ]=============================
|                                                                             |
|  Number of variables:          5282                                         |
|  Number of clauses:           68668                                         |
|  Parse time:                   0.41 s                                       |
|  Simplification time:          0.01 s                                       |
|                                                                             |
============================[ Search Statistics ]====================================================
| Conflicts |          ORIGINAL         |          LEARNT          | Num Sols |      SUBGRAPHS      |
|           |    Vars  Clauses Literals |    Limit  Clauses Lit/Cl |          | Canonical Noncanon. |
=====================================================================================================
|       107 |    5199    68675  6692889 |     2000      107    129 |        0 |        15         7 |
|       277 |    5199    68695  6693122 |     2000      277    103 |        0 |        37        27 |
|       608 |    5199    68801  6694514 |     2000      608     81 |        0 |        83       133 |
|      1250 |    5199    69106  6698110 |     2000     1250     62 |        0 |       136       438 |
|      1893 |    5199    69243  6699935 |     2000     1893     61 |        0 |       176       575 |
|      2715 |    5199    69306  6700713 |     3600     1715     41 |        0 |       187       638 |
|      3929 |    5199    69381  6702270 |     3600     2929     57 |        0 |       199       713 |
|      5847 |    5199    69591  6704854 |     5003     3050     42 |        0 |       231       923 |
|      9057 |    5152    70239  6711613 |     6301     3745     35 |        0 |       383      1571 |
=====================================================================================================
Number of solutions   : 0
Canonical subgraphs   : 464            (69 /sec)
          order  3    : 1              (166667 /sec)
          order  4    : 1              (500000 /sec)
          order  5    : 1              (250000 /sec)
          order  6    : 1              (52632 /sec)
          order  7    : 2              (10471 /sec)
          order  8    : 2              (4695 /sec)
          order  9    : 2              (2010 /sec)
          order 10    : 4              (1047 /sec)
          order 11    : 9              (529 /sec)
          order 12    : 19             (306 /sec)
          order 13    : 55             (156 /sec)
          order 14    : 125            (122 /sec)
          order 15    : 194            (44 /sec)
          order 16    : 16             (52 /sec)
          order 17    : 18             (58 /sec)
          order 18    : 13             (47 /sec)
          order 19    : 1              (66 /sec)
          order 20    : 0              (-nan /sec)
          order 21    : 0              (-nan /sec)
Noncanonical subgraphs: 1907           (529 /sec)
          order  3    : 0              (-nan /sec)
          order  4    : 0              (-nan /sec)
          order  5    : 0              (-nan /sec)
          order  6    : 0              (-nan /sec)
          order  7    : 0              (-nan /sec)
          order  8    : 0              (-nan /sec)
          order  9    : 0              (-nan /sec)
          order 10    : 0              (-nan /sec)
          order 11    : 0              (-nan /sec)
          order 12    : 0              (-nan /sec)
          order 13    : 188            (10169 /sec)
          order 14    : 499            (3327 /sec)
          order 15    : 701            (875 /sec)
          order 16    : 312            (184 /sec)
          order 17    : 205            (222 /sec)
          order 18    : 2              (133 /sec)
          order 19    : 0              (-nan /sec)
          order 20    : 0              (-nan /sec)
Canonicity checking   : 6.74995 s
Noncanonicity checking: 3.602 s
Total canonicity time : 10.352 s
database reductions   : 3
restarts              : 41
conflicts             : 9480           (739 /sec)
decisions             : 27027          (0.00 % random) (2107 /sec)
propagations          : 386894         (30164 /sec)
conflict literals     : 592003         (53.17 % deleted)
actual reward         : 0.293328
Memory used           : 39.00 MB
CPU time              : 12.8264 s

UNSATISFIABLE
